# |V| = 10
# |E| = 34
# Prob((i,j)) = 0.600000

set V:=
1
2
3
4
5
6
7
8
9
10
;
param: E: w :=
1 2 42
1 3 63
1 4 25
1 5 91
1 6 88
1 7 99
1 8 51
1 9 14
1 10 46
2 3 79
2 5 56
2 7 51
2 8 96
2 9 57
2 10 78
3 6 86
3 7 66
3 9 30
3 10 11
4 6 39
4 7 21
4 8 97
5 6 12
5 7 54
5 8 98
5 9 87
5 10 92
6 8 42
6 9 74
7 8 65
7 9 22
7 10 80
8 9 62
9 10 59
;
